
===== New CPLEX run =====
Instance: /home/yorig/tuner/mpils-tests/instances/miplib/medium-2/supportcase40.mps
Config: /scratch/yorig/mpils-results-grid-seconds-10-no-mip-start/medium-2/2proc/seed-3/8_supportcase40_seed-3_20260503_050730/iterated_local_search/run_2_worker_1/ils_config_8026502911958261700.prm
========================

Selected objective sense:  MINIMIZE
Selected objective  name:  obj
Selected RHS        name:  rhs
Selected bound      name:  bnd
Version identifier: 22.1.2.0 | 2024-11-26 | 0edbb82fd
CPXPARAM_Threads                                 8
CPXPARAM_Parallel                                1
CPXPARAM_MIP_Cuts_Covers                         2
CPXPARAM_MIP_Cuts_FlowCovers                     2
CPXPARAM_MIP_Cuts_Gomory                         1
CPXPARAM_MIP_Cuts_MIRCut                         1
CPXPARAM_Emphasis_MIP                            2
CPXPARAM_TimeLimit                               10
1 of 21 MIP starts provided solutions.
MIP start 'm1' defined initial solution with objective 24330.4290.
Tried aggregator 2 times.
MIP Presolve eliminated 29622 rows and 11272 columns.
MIP Presolve modified 700 coefficients.
Aggregator did 100 substitutions.
Reduced MIP has 8469 rows, 5068 columns, and 24192 nonzeros.
Reduced MIP has 300 binaries, 0 generals, 0 SOSs, and 0 indicators.
Presolve time = 0.01 sec. (31.66 ticks)
Probing time = 0.08 sec. (1.10 ticks)
Tried aggregator 1 time.
Detecting symmetries...
Reduced MIP has 8469 rows, 5068 columns, and 24192 nonzeros.
Reduced MIP has 300 binaries, 0 generals, 0 SOSs, and 0 indicators.
Presolve time = 0.01 sec. (12.02 ticks)
Probing time = 0.03 sec. (0.85 ticks)
Clique table members: 100.
MIP emphasis: optimality.
MIP search method: dynamic search.
Parallel mode: deterministic, using up to 8 threads.
Root relaxation solution time = 0.12 sec. (175.06 ticks)

        Nodes                                         Cuts/
   Node  Left     Objective  IInf  Best Integer    Best Bound    ItCnt     Gap

*     0+    0                        24330.4290     3301.6156            86.43%
      0     0    22536.4834    38    24330.4290    22536.4834     4631    7.37%
      0     0    22643.5396    38    24330.4290      Cuts: 34     4896    6.93%
      0     0    22702.3791    38    24330.4290      Cuts: 30     5064    6.69%
      0     0    22702.3791    38    24330.4290    MIRcuts: 1     5065    6.69%
Detecting symmetries...
      0     2    22702.3791    38    24330.4290    22702.3791     5065    6.69%
Elapsed time = 1.71 sec. (1198.63 ticks, tree = 0.02 MB, solutions = 1)
      2     4    23238.5298    38    24330.4290    22702.4433     5723    6.69%
     69    31    24206.2393    25    24330.4290    22727.9753    11150    6.59%
    177    68        cutoff          24330.4290    22727.9753    21809    6.59%
    253    81        cutoff          24330.4290    22731.6058    29686    6.57%
    337    89        cutoff          24330.4290    22731.6058    36400    6.57%
    388   123    24300.7409    18    24330.4290    22731.6058    45330    6.57%
    445   133        cutoff          24330.4290    22808.7927    51654    6.25%
    522   174    24312.1930    16    24330.4290    22820.6576    64906    6.21%
    565   210    23439.8310    28    24330.4290    22820.6576    76404    6.21%
    727   301    23467.9948    32    24330.4290    22820.6576   107286    6.21%
Elapsed time = 6.65 sec. (4317.66 ticks, tree = 1.13 MB, solutions = 1)
    922   402    23930.7909    22    24330.4290    22820.6576   139402    6.21%
   1095   537    24222.1918    26    24330.4290    22864.0790   193220    6.03%

Cover cuts applied:  0
Flow cuts applied:  1
Mixed integer rounding cuts applied:  3
Gomory fractional cuts applied:  56

Root node processing (before b&c):
  Real time             =    1.48 sec. (1193.41 ticks)
Parallel b&c, 8 threads:
  Real time             =    8.53 sec. (5381.34 ticks)
  Sync time (average)   =    2.26 sec.
  Wait time (average)   =    0.00 sec.
                          ------------
Total (root+branch&cut) =   10.01 sec. (6574.75 ticks)
Gap: 5.7%
Upper bound: 24330.4
Lower bound: 22944.5
End of CPLEX run. Time: 10.0079 seconds

===== New CPLEX run =====
Instance: /home/yorig/tuner/mpils-tests/instances/miplib/medium-2/supportcase40.mps
Config: /scratch/yorig/mpils-results-grid-seconds-10-no-mip-start/medium-2/2proc/seed-3/8_supportcase40_seed-3_20260503_050730/iterated_local_search/run_2_worker_1/ils_config_9894460217586390937.prm
========================

Selected objective sense:  MINIMIZE
Selected objective  name:  obj
Selected RHS        name:  rhs
Selected bound      name:  bnd
Version identifier: 22.1.2.0 | 2024-11-26 | 0edbb82fd
CPXPARAM_Threads                                 8
CPXPARAM_Parallel                                1
CPXPARAM_MIP_Cuts_Covers                         2
CPXPARAM_MIP_Cuts_FlowCovers                     2
CPXPARAM_MIP_Cuts_Gomory                         1
CPXPARAM_MIP_Cuts_MIRCut                         1
CPXPARAM_MIP_Cuts_Disjunctive                    1
CPXPARAM_Emphasis_MIP                            2
CPXPARAM_TimeLimit                               10
1 of 21 MIP starts provided solutions.
MIP start 'm1' defined initial solution with objective 24330.4290.
Tried aggregator 2 times.
MIP Presolve eliminated 29622 rows and 11272 columns.
MIP Presolve modified 700 coefficients.
Aggregator did 100 substitutions.
Reduced MIP has 8469 rows, 5068 columns, and 24192 nonzeros.
Reduced MIP has 300 binaries, 0 generals, 0 SOSs, and 0 indicators.
Presolve time = 0.01 sec. (31.66 ticks)
Probing time = 0.11 sec. (1.10 ticks)
Tried aggregator 1 time.
Detecting symmetries...
Reduced MIP has 8469 rows, 5068 columns, and 24192 nonzeros.
Reduced MIP has 300 binaries, 0 generals, 0 SOSs, and 0 indicators.
Presolve time = 0.01 sec. (12.02 ticks)
Probing time = 0.04 sec. (0.85 ticks)
Clique table members: 100.
MIP emphasis: optimality.
MIP search method: dynamic search.
Parallel mode: deterministic, using up to 8 threads.
Root relaxation solution time = 0.12 sec. (175.06 ticks)

        Nodes                                         Cuts/
   Node  Left     Objective  IInf  Best Integer    Best Bound    ItCnt     Gap

*     0+    0                        24330.4290     3301.6156            86.43%
      0     0    22536.4834    38    24330.4290    22536.4834     4631    7.37%
      0     0    22643.5396    38    24330.4290      Cuts: 34     4896    6.93%
      0     0    22702.3791    38    24330.4290      Cuts: 30     5064    6.69%
      0     0    22702.3791    38    24330.4290    MIRcuts: 1     5065    6.69%
Detecting symmetries...
      0     2    22702.3791    38    24330.4290    22702.3791     5065    6.69%
Elapsed time = 1.75 sec. (1198.63 ticks, tree = 0.02 MB, solutions = 1)
      2     4    23238.5298    38    24330.4290    22702.4433     5723    6.69%
     69    31    24206.2393    25    24330.4290    22727.9753    11150    6.59%
    177    68        cutoff          24330.4290    22727.9753    21809    6.59%
    253    81        cutoff          24330.4290    22731.6058    29686    6.57%
    337    89        cutoff          24330.4290    22731.6058    36400    6.57%
    388   123    24300.7409    18    24330.4290    22731.6058    45330    6.57%
    445   133        cutoff          24330.4290    22808.7927    51654    6.25%
    522   174    24312.1930    16    24330.4290    22820.6576    64906    6.21%
    565   210    23439.8310    28    24330.4290    22820.6576    76404    6.21%
    727   301    23467.9948    32    24330.4290    22820.6576   107286    6.21%
Elapsed time = 6.90 sec. (4317.66 ticks, tree = 1.13 MB, solutions = 1)
    922   402    23930.7909    22    24330.4290    22820.6576   139402    6.21%
   1095   537    24222.1918    26    24330.4290    22864.0790   193220    6.03%

Cover cuts applied:  0
Flow cuts applied:  1
Mixed integer rounding cuts applied:  3
Gomory fractional cuts applied:  56
Disjunctive cuts applied:  0
Cone linearizations applied:  0

Root node processing (before b&c):
  Real time             =    1.55 sec. (1193.41 ticks)
Parallel b&c, 8 threads:
  Real time             =    8.45 sec. (5162.01 ticks)
  Sync time (average)   =    2.77 sec.
  Wait time (average)   =    0.00 sec.
                          ------------
Total (root+branch&cut) =   10.00 sec. (6355.42 ticks)
Gap: 5.79%
Upper bound: 24330.4
Lower bound: 22922.1
End of CPLEX run. Time: 10.004 seconds

===== New CPLEX run =====
Instance: /home/yorig/tuner/mpils-tests/instances/miplib/medium-2/supportcase40.mps
Config: /scratch/yorig/mpils-results-grid-seconds-10-no-mip-start/medium-2/2proc/seed-3/8_supportcase40_seed-3_20260503_050730/iterated_local_search/run_2_worker_1/ils_config_9499226641593137000.prm
========================

Selected objective sense:  MINIMIZE
Selected objective  name:  obj
Selected RHS        name:  rhs
Selected bound      name:  bnd
Version identifier: 22.1.2.0 | 2024-11-26 | 0edbb82fd
CPXPARAM_Threads                                 8
CPXPARAM_Parallel                                1
CPXPARAM_MIP_Cuts_Covers                         3
CPXPARAM_MIP_Cuts_FlowCovers                     2
CPXPARAM_MIP_Cuts_Gomory                         1
CPXPARAM_MIP_Cuts_MIRCut                         1
CPXPARAM_Emphasis_MIP                            2
CPXPARAM_TimeLimit                               10
1 of 21 MIP starts provided solutions.
MIP start 'm1' defined initial solution with objective 24330.4290.
Tried aggregator 2 times.
MIP Presolve eliminated 29622 rows and 11272 columns.
MIP Presolve modified 700 coefficients.
Aggregator did 100 substitutions.
Reduced MIP has 8469 rows, 5068 columns, and 24192 nonzeros.
Reduced MIP has 300 binaries, 0 generals, 0 SOSs, and 0 indicators.
Presolve time = 0.01 sec. (31.66 ticks)
Probing time = 0.09 sec. (1.10 ticks)
Tried aggregator 1 time.
Detecting symmetries...
Reduced MIP has 8469 rows, 5068 columns, and 24192 nonzeros.
Reduced MIP has 300 binaries, 0 generals, 0 SOSs, and 0 indicators.
Presolve time = 0.01 sec. (12.02 ticks)
Probing time = 0.10 sec. (0.85 ticks)
Clique table members: 100.
MIP emphasis: optimality.
MIP search method: dynamic search.
Parallel mode: deterministic, using up to 8 threads.
Root relaxation solution time = 0.12 sec. (175.06 ticks)

        Nodes                                         Cuts/
   Node  Left     Objective  IInf  Best Integer    Best Bound    ItCnt     Gap

*     0+    0                        24330.4290     3301.6156            86.43%
      0     0    22536.4834    38    24330.4290    22536.4834     4631    7.37%
      0     0    22643.5396    38    24330.4290      Cuts: 34     4896    6.93%
      0     0    22702.3791    38    24330.4290      Cuts: 30     5064    6.69%
      0     0    22702.3791    38    24330.4290    MIRcuts: 1     5065    6.69%
Detecting symmetries...
      0     2    22702.3791    38    24330.4290    22702.3791     5065    6.69%
Elapsed time = 1.67 sec. (1198.63 ticks, tree = 0.02 MB, solutions = 1)
      2     4    23238.5298    38    24330.4290    22702.4433     5723    6.69%
     69    31    24206.2393    25    24330.4290    22727.9753    11150    6.59%
    177    68        cutoff          24330.4290    22727.9753    21809    6.59%
    253    81        cutoff          24330.4290    22731.6058    29686    6.57%
    337    89        cutoff          24330.4290    22731.6058    36400    6.57%
    388   123    24300.7409    18    24330.4290    22731.6058    45330    6.57%
    445   133        cutoff          24330.4290    22808.7927    51654    6.25%
    522   174    24312.1930    16    24330.4290    22820.6576    64906    6.21%
    565   210    23439.8310    28    24330.4290    22820.6576    76404    6.21%
    727   301    23467.9948    32    24330.4290    22820.6576   107286    6.21%
Elapsed time = 6.50 sec. (4317.66 ticks, tree = 1.13 MB, solutions = 1)
    922   402    23930.7909    22    24330.4290    22820.6576   139402    6.21%
   1095   537    24222.1918    26    24330.4290    22864.0790   193220    6.03%

Cover cuts applied:  0
Flow cuts applied:  1
Mixed integer rounding cuts applied:  3
Gomory fractional cuts applied:  56

Root node processing (before b&c):
  Real time             =    1.51 sec. (1193.41 ticks)
Parallel b&c, 8 threads:
  Real time             =    8.49 sec. (5499.21 ticks)
  Sync time (average)   =    2.38 sec.
  Wait time (average)   =    0.00 sec.
                          ------------
Total (root+branch&cut) =   10.00 sec. (6692.62 ticks)
Gap: 5.7%
Upper bound: 24330.4
Lower bound: 22944.5
End of CPLEX run. Time: 10.0038 seconds

===== New CPLEX run =====
Instance: /home/yorig/tuner/mpils-tests/instances/miplib/medium-2/supportcase40.mps
Config: /scratch/yorig/mpils-results-grid-seconds-10-no-mip-start/medium-2/2proc/seed-3/8_supportcase40_seed-3_20260503_050730/iterated_local_search/run_2_worker_1/ils_config_10291734866996728555.prm
========================

Selected objective sense:  MINIMIZE
Selected objective  name:  obj
Selected RHS        name:  rhs
Selected bound      name:  bnd
Version identifier: 22.1.2.0 | 2024-11-26 | 0edbb82fd
CPXPARAM_Threads                                 8
CPXPARAM_Parallel                                1
CPXPARAM_MIP_Cuts_Covers                         2
CPXPARAM_MIP_Cuts_FlowCovers                     2
CPXPARAM_MIP_Strategy_Probe                      3
CPXPARAM_MIP_Cuts_Gomory                         1
CPXPARAM_MIP_Cuts_MIRCut                         1
CPXPARAM_Emphasis_MIP                            2
CPXPARAM_TimeLimit                               10
1 of 21 MIP starts provided solutions.
MIP start 'm1' defined initial solution with objective 24330.4290.
Tried aggregator 2 times.
MIP Presolve eliminated 29622 rows and 11272 columns.
MIP Presolve modified 700 coefficients.
Aggregator did 100 substitutions.
Reduced MIP has 8469 rows, 5068 columns, and 24192 nonzeros.
Reduced MIP has 300 binaries, 0 generals, 0 SOSs, and 0 indicators.
Presolve time = 0.01 sec. (31.66 ticks)
Probing time = 0.09 sec. (1.10 ticks)
Tried aggregator 1 time.
Detecting symmetries...
Reduced MIP has 8469 rows, 5068 columns, and 24192 nonzeros.
Reduced MIP has 300 binaries, 0 generals, 0 SOSs, and 0 indicators.
Presolve time = 0.01 sec. (12.02 ticks)
Probing time = 0.08 sec. (0.85 ticks)
Clique table members: 100.
MIP emphasis: optimality.
MIP search method: dynamic search.
Parallel mode: deterministic, using up to 8 threads.
Root relaxation solution time = 0.12 sec. (175.06 ticks)

        Nodes                                         Cuts/
   Node  Left     Objective  IInf  Best Integer    Best Bound    ItCnt     Gap

*     0+    0                        24330.4290     3301.6156            86.43%
      0     0    22536.4834    38    24330.4290    22536.4834     4631    7.37%
      0     0    22643.5396    38    24330.4290      Cuts: 34     4896    6.93%
      0     0    22702.3791    38    24330.4290      Cuts: 30     5064    6.69%
      0     0    22702.3791    38    24330.4290    MIRcuts: 1     5065    6.69%
Detecting symmetries...
      0     2    22702.3791    38    24330.4290    22702.3791     5065    6.69%
Elapsed time = 1.66 sec. (1198.74 ticks, tree = 0.02 MB, solutions = 1)
      2     4    23238.5298    38    24330.4290    22702.4433     5723    6.69%
     69    31    24206.2393    25    24330.4290    22727.9753    11150    6.59%
    177    68        cutoff          24330.4290    22727.9753    21809    6.59%
    253    81        cutoff          24330.4290    22731.6058    29686    6.57%
    337    89        cutoff          24330.4290    22731.6058    36400    6.57%
    388   123    24300.7409    18    24330.4290    22731.6058    45330    6.57%
    445   133        cutoff          24330.4290    22808.7927    51654    6.25%
    522   174    24312.1930    16    24330.4290    22820.6576    64906    6.21%
    565   210    23439.8310    28    24330.4290    22820.6576    76404    6.21%
    727   301    23467.9948    32    24330.4290    22820.6576   107286    6.21%
Elapsed time = 6.51 sec. (4317.77 ticks, tree = 1.13 MB, solutions = 1)
    922   402    23930.7909    22    24330.4290    22820.6576   139402    6.21%
   1095   537    24222.1918    26    24330.4290    22864.0790   193220    6.03%

Cover cuts applied:  0
Flow cuts applied:  1
Mixed integer rounding cuts applied:  3
Gomory fractional cuts applied:  56

Root node processing (before b&c):
  Real time             =    1.51 sec. (1193.53 ticks)
Parallel b&c, 8 threads:
  Real time             =    8.50 sec. (5547.65 ticks)
  Sync time (average)   =    2.50 sec.
  Wait time (average)   =    0.00 sec.
                          ------------
Total (root+branch&cut) =   10.00 sec. (6741.18 ticks)
Gap: 5.7%
Upper bound: 24330.4
Lower bound: 22944.5
End of CPLEX run. Time: 10.0031 seconds

===== New CPLEX run =====
Instance: /home/yorig/tuner/mpils-tests/instances/miplib/medium-2/supportcase40.mps
Config: /scratch/yorig/mpils-results-grid-seconds-10-no-mip-start/medium-2/2proc/seed-3/8_supportcase40_seed-3_20260503_050730/iterated_local_search/run_2_worker_1/ils_config_4563127337826716964.prm
========================

Selected objective sense:  MINIMIZE
Selected objective  name:  obj
Selected RHS        name:  rhs
Selected bound      name:  bnd
Version identifier: 22.1.2.0 | 2024-11-26 | 0edbb82fd
CPXPARAM_Threads                                 8
CPXPARAM_Parallel                                1
CPXPARAM_MIP_Cuts_Covers                         2
CPXPARAM_MIP_Cuts_FlowCovers                     2
CPXPARAM_MIP_Cuts_Implied                        1
CPXPARAM_MIP_Cuts_Gomory                         1
CPXPARAM_MIP_Cuts_MIRCut                         1
CPXPARAM_Emphasis_MIP                            2
CPXPARAM_TimeLimit                               10
1 of 21 MIP starts provided solutions.
MIP start 'm1' defined initial solution with objective 24330.4290.
Tried aggregator 2 times.
MIP Presolve eliminated 29622 rows and 11272 columns.
MIP Presolve modified 700 coefficients.
Aggregator did 100 substitutions.
Reduced MIP has 8469 rows, 5068 columns, and 24192 nonzeros.
Reduced MIP has 300 binaries, 0 generals, 0 SOSs, and 0 indicators.
Presolve time = 0.01 sec. (31.66 ticks)
Probing time = 0.07 sec. (1.10 ticks)
Tried aggregator 1 time.
Detecting symmetries...
Reduced MIP has 8469 rows, 5068 columns, and 24192 nonzeros.
Reduced MIP has 300 binaries, 0 generals, 0 SOSs, and 0 indicators.
Presolve time = 0.01 sec. (12.02 ticks)
Probing time = 0.03 sec. (0.85 ticks)
Clique table members: 100.
MIP emphasis: optimality.
MIP search method: dynamic search.
Parallel mode: deterministic, using up to 8 threads.
Root relaxation solution time = 0.17 sec. (175.06 ticks)

        Nodes                                         Cuts/
   Node  Left     Objective  IInf  Best Integer    Best Bound    ItCnt     Gap

*     0+    0                        24330.4290     3301.6156            86.43%
      0     0    22536.4834    38    24330.4290    22536.4834     4631    7.37%
      0     0    22643.5396    38    24330.4290      Cuts: 34     4896    6.93%
      0     0    22702.3791    38    24330.4290      Cuts: 30     5064    6.69%
      0     0    22702.3791    38    24330.4290    MIRcuts: 1     5065    6.69%
Detecting symmetries...
      0     2    22702.3791    38    24330.4290    22702.3791     5065    6.69%
Elapsed time = 1.62 sec. (1198.63 ticks, tree = 0.02 MB, solutions = 1)
      2     4    23238.5298    38    24330.4290    22702.4433     5723    6.69%
     69    31    24206.2393    25    24330.4290    22727.9753    11150    6.59%
    177    68        cutoff          24330.4290    22727.9753    21809    6.59%
    253    81        cutoff          24330.4290    22731.6058    29686    6.57%
    337    89        cutoff          24330.4290    22731.6058    36400    6.57%
    388   123    24300.7409    18    24330.4290    22731.6058    45330    6.57%
    445   133        cutoff          24330.4290    22808.7927    51654    6.25%
    522   174    24312.1930    16    24330.4290    22820.6576    64906    6.21%
    565   210    23439.8310    28    24330.4290    22820.6576    76404    6.21%
    728   322    24075.7073    28    24330.4290    22820.6576   113731    6.21%
Elapsed time = 6.64 sec. (4317.70 ticks, tree = 1.56 MB, solutions = 1)
    920   405    24266.7911    24    24330.4290    22820.6576   140725    6.21%
   1098   543    23545.5974    37    24330.4290    22937.0280   196324    5.73%

Cover cuts applied:  0
Implied bound cuts applied:  0
Flow cuts applied:  1
Mixed integer rounding cuts applied:  3
Gomory fractional cuts applied:  56

Root node processing (before b&c):
  Real time             =    1.48 sec. (1193.41 ticks)
Parallel b&c, 8 threads:
  Real time             =    8.52 sec. (5398.14 ticks)
  Sync time (average)   =    2.52 sec.
  Wait time (average)   =    0.00 sec.
                          ------------
Total (root+branch&cut) =   10.00 sec. (6591.55 ticks)
Gap: 5.64%
Upper bound: 24330.4
Lower bound: 22957.1
End of CPLEX run. Time: 10.0048 seconds

===== New CPLEX run =====
Instance: /home/yorig/tuner/mpils-tests/instances/miplib/medium-2/supportcase40.mps
Config: /scratch/yorig/mpils-results-grid-seconds-10-no-mip-start/medium-2/2proc/seed-3/8_supportcase40_seed-3_20260503_050730/iterated_local_search/run_2_worker_1/ils_config_4127303118310575839.prm
========================

Selected objective sense:  MINIMIZE
Selected objective  name:  obj
Selected RHS        name:  rhs
Selected bound      name:  bnd
Version identifier: 22.1.2.0 | 2024-11-26 | 0edbb82fd
CPXPARAM_Threads                                 8
CPXPARAM_Parallel                                1
CPXPARAM_MIP_Cuts_Covers                         2
CPXPARAM_MIP_Cuts_FlowCovers                     2
CPXPARAM_MIP_Cuts_Implied                        1
CPXPARAM_MIP_Cuts_Gomory                         1
CPXPARAM_Emphasis_MIP                            2
CPXPARAM_TimeLimit                               10
1 of 21 MIP starts provided solutions.
MIP start 'm1' defined initial solution with objective 24330.4290.
Tried aggregator 2 times.
MIP Presolve eliminated 29622 rows and 11272 columns.
MIP Presolve modified 700 coefficients.
Aggregator did 100 substitutions.
Reduced MIP has 8469 rows, 5068 columns, and 24192 nonzeros.
Reduced MIP has 300 binaries, 0 generals, 0 SOSs, and 0 indicators.
Presolve time = 0.01 sec. (31.66 ticks)
Probing time = 0.09 sec. (1.10 ticks)
Tried aggregator 1 time.
Detecting symmetries...
Reduced MIP has 8469 rows, 5068 columns, and 24192 nonzeros.
Reduced MIP has 300 binaries, 0 generals, 0 SOSs, and 0 indicators.
Presolve time = 0.01 sec. (12.02 ticks)
Probing time = 0.11 sec. (0.85 ticks)
Clique table members: 100.
MIP emphasis: optimality.
MIP search method: dynamic search.
Parallel mode: deterministic, using up to 8 threads.
Root relaxation solution time = 0.12 sec. (175.06 ticks)

        Nodes                                         Cuts/
   Node  Left     Objective  IInf  Best Integer    Best Bound    ItCnt     Gap

*     0+    0                        24330.4290     3301.6156            86.43%
      0     0    22536.4834    38    24330.4290    22536.4834     4631    7.37%
      0     0    22643.5396    38    24330.4290      Cuts: 34     4896    6.93%
      0     0    22702.3791    38    24330.4290      Cuts: 30     5064    6.69%
      0     0    22702.3791    38    24330.4290   Flowcuts: 1     5065    6.69%
Detecting symmetries...
      0     2    22702.3791    38    24330.4290    22702.3791     5065    6.69%
Elapsed time = 1.64 sec. (1187.47 ticks, tree = 0.02 MB, solutions = 1)
      2     4    23238.5298    38    24330.4290    22702.4433     5723    6.69%
     69    31    24206.2393    25    24330.4290    22727.9753    11150    6.59%
    177    68        cutoff          24330.4290    22727.9753    21809    6.59%
    253    81        cutoff          24330.4290    22731.6058    29686    6.57%
    337    89        cutoff          24330.4290    22731.6058    36400    6.57%
    388   123    24300.7409    18    24330.4290    22731.6058    45330    6.57%
    445   133        cutoff          24330.4290    22808.7927    51654    6.25%
    522   174    24312.1930    16    24330.4290    22820.6576    64906    6.21%
    565   210    23439.8310    28    24330.4290    22820.6576    76404    6.21%
    728   322    24075.7073    28    24330.4290    22820.6576   113731    6.21%
Elapsed time = 6.44 sec. (4306.54 ticks, tree = 1.56 MB, solutions = 1)
    920   405    24266.7911    24    24330.4290    22820.6576   140725    6.21%
   1098   543    23545.5974    37    24330.4290    22937.0280   196324    5.73%

Cover cuts applied:  0
Implied bound cuts applied:  0
Flow cuts applied:  4
Gomory fractional cuts applied:  56

Root node processing (before b&c):
  Real time             =    1.48 sec. (1182.25 ticks)
Parallel b&c, 8 threads:
  Real time             =    8.53 sec. (5593.64 ticks)
  Sync time (average)   =    2.52 sec.
  Wait time (average)   =    0.00 sec.
                          ------------
Total (root+branch&cut) =   10.00 sec. (6775.89 ticks)
Gap: 5.56%
Upper bound: 24330.4
Lower bound: 22978.1
End of CPLEX run. Time: 10.003 seconds

===== New CPLEX run =====
Instance: /home/yorig/tuner/mpils-tests/instances/miplib/medium-2/supportcase40.mps
Config: /scratch/yorig/mpils-results-grid-seconds-10-no-mip-start/medium-2/2proc/seed-3/8_supportcase40_seed-3_20260503_050730/iterated_local_search/run_2_worker_1/ils_config_8599286452299785965.prm
========================

Selected objective sense:  MINIMIZE
Selected objective  name:  obj
Selected RHS        name:  rhs
Selected bound      name:  bnd
Version identifier: 22.1.2.0 | 2024-11-26 | 0edbb82fd
CPXPARAM_Threads                                 8
CPXPARAM_Parallel                                1
CPXPARAM_MIP_Cuts_Covers                         2
CPXPARAM_MIP_Cuts_FlowCovers                     2
CPXPARAM_MIP_Cuts_Implied                        1
CPXPARAM_MIP_Cuts_Gomory                         -1
CPXPARAM_Emphasis_MIP                            2
CPXPARAM_TimeLimit                               10
1 of 21 MIP starts provided solutions.
MIP start 'm1' defined initial solution with objective 24330.4290.
Tried aggregator 2 times.
MIP Presolve eliminated 29622 rows and 11272 columns.
MIP Presolve modified 700 coefficients.
Aggregator did 100 substitutions.
Reduced MIP has 8469 rows, 5068 columns, and 24192 nonzeros.
Reduced MIP has 300 binaries, 0 generals, 0 SOSs, and 0 indicators.
Presolve time = 0.01 sec. (31.66 ticks)
Probing time = 0.09 sec. (1.10 ticks)
Tried aggregator 1 time.
Detecting symmetries...
Reduced MIP has 8469 rows, 5068 columns, and 24192 nonzeros.
Reduced MIP has 300 binaries, 0 generals, 0 SOSs, and 0 indicators.
Presolve time = 0.01 sec. (12.02 ticks)
Probing time = 0.00 sec. (0.85 ticks)
Clique table members: 100.
MIP emphasis: optimality.
MIP search method: dynamic search.
Parallel mode: deterministic, using up to 8 threads.
Root relaxation solution time = 0.14 sec. (175.06 ticks)

        Nodes                                         Cuts/
   Node  Left     Objective  IInf  Best Integer    Best Bound    ItCnt     Gap

*     0+    0                        24330.4290     3301.6156            86.43%
      0     0    22536.4834    38    24330.4290    22536.4834     4631    7.37%
      0     0    22540.1468    39    24330.4290       Cuts: 3     4656    7.36%
      0     0    22540.1542    40    24330.4290   LiftProj: 1     4662    7.36%
Detecting symmetries...
      0     2    22540.1542    40    24330.4290    22540.1542     4662    7.36%
Elapsed time = 1.45 sec. (765.84 ticks, tree = 0.02 MB, solutions = 1)
     23    18    23906.0286    30    24330.4290    22573.5453     8023    7.22%
     88    46    24018.6284    28    24330.4290    22573.5453    15869    7.22%
    215    63        cutoff          24330.4290    22573.5453    24269    7.22%
    281    81    24070.5920    24    24330.4290    22573.5453    34844    7.22%
    392    97    24296.3986    22    24330.4290    22573.5453    42845    7.22%
    510   114        cutoff          24330.4290    22573.5453    57199    7.22%
    625   139    24005.1571    24    24330.4290    22573.5453    67189    7.22%
    746   154        cutoff          24330.4290    22573.5453    74874    7.22%
    866   166        cutoff          24330.4290    22573.5453    87346    7.22%
   1187   253        cutoff          24330.4290    22600.4936   125256    7.11%
Elapsed time = 6.38 sec. (3907.49 ticks, tree = 0.41 MB, solutions = 1)
   1404   360    24301.0757    18    24330.4290    22600.4936   164258    7.11%
   1605   545    24103.1499    30    24330.4290    22911.9424   223612    5.83%

Cover cuts applied:  0
Implied bound cuts applied:  0
Flow cuts applied:  2
Lift and project cuts applied:  2

Root node processing (before b&c):
  Real time             =    1.21 sec. (762.55 ticks)
Parallel b&c, 8 threads:
  Real time             =    8.79 sec. (5782.61 ticks)
  Sync time (average)   =    2.48 sec.
  Wait time (average)   =    0.00 sec.
                          ------------
Total (root+branch&cut) =   10.00 sec. (6545.17 ticks)
Gap: 5.52%
Upper bound: 24330.4
Lower bound: 22987.8
End of CPLEX run. Time: 10.0043 seconds

===== New CPLEX run =====
Instance: /home/yorig/tuner/mpils-tests/instances/miplib/medium-2/supportcase40.mps
Config: /scratch/yorig/mpils-results-grid-seconds-10-no-mip-start/medium-2/2proc/seed-3/8_supportcase40_seed-3_20260503_050730/iterated_local_search/run_2_worker_1/ils_config_5150688106575612979.prm
========================

Selected objective sense:  MINIMIZE
Selected objective  name:  obj
Selected RHS        name:  rhs
Selected bound      name:  bnd
Version identifier: 22.1.2.0 | 2024-11-26 | 0edbb82fd
CPXPARAM_Threads                                 8
CPXPARAM_Parallel                                1
CPXPARAM_MIP_Cuts_Covers                         2
CPXPARAM_MIP_Cuts_FlowCovers                     2
CPXPARAM_MIP_Cuts_Implied                        1
CPXPARAM_MIP_Cuts_Gomory                         -1
CPXPARAM_Emphasis_MIP                            2
CPXPARAM_MIP_Strategy_RINSHeur                   1000
CPXPARAM_TimeLimit                               10
1 of 21 MIP starts provided solutions.
MIP start 'm1' defined initial solution with objective 24330.4290.
Tried aggregator 2 times.
MIP Presolve eliminated 29622 rows and 11272 columns.
MIP Presolve modified 700 coefficients.
Aggregator did 100 substitutions.
Reduced MIP has 8469 rows, 5068 columns, and 24192 nonzeros.
Reduced MIP has 300 binaries, 0 generals, 0 SOSs, and 0 indicators.
Presolve time = 0.01 sec. (31.66 ticks)
Probing time = 0.09 sec. (1.10 ticks)
Tried aggregator 1 time.
Detecting symmetries...
Reduced MIP has 8469 rows, 5068 columns, and 24192 nonzeros.
Reduced MIP has 300 binaries, 0 generals, 0 SOSs, and 0 indicators.
Presolve time = 0.01 sec. (12.02 ticks)
Probing time = 0.03 sec. (0.85 ticks)
Clique table members: 100.
MIP emphasis: optimality.
MIP search method: dynamic search.
Parallel mode: deterministic, using up to 8 threads.
Root relaxation solution time = 0.13 sec. (175.06 ticks)

        Nodes                                         Cuts/
   Node  Left     Objective  IInf  Best Integer    Best Bound    ItCnt     Gap

*     0+    0                        24330.4290     3301.6156            86.43%
      0     0    22536.4834    38    24330.4290    22536.4834     4631    7.37%
      0     0    22540.1468    39    24330.4290       Cuts: 3     4656    7.36%
      0     0    22540.1542    40    24330.4290   LiftProj: 1     4662    7.36%
Detecting symmetries...
      0     2    22540.1542    40    24330.4290    22540.1542     4662    7.36%
Elapsed time = 2.95 sec. (1862.60 ticks, tree = 0.02 MB, solutions = 1)
     31    14        cutoff          24330.4290    22573.5453     8538    7.22%
    102    45    24249.2206    20    24330.4290    22606.9693    17492    7.08%
    174    69    22650.9004    38    24330.4290    22606.9693    24543    7.08%
    274    95    23188.0540    30    24330.4290    22606.9693    30864    7.08%
    363   134    24072.9800    24    24330.4290    22606.9693    39459    7.08%
    435   155    24136.1909    18    24330.4290    22606.9693    45567    7.08%
    516   186        cutoff          24330.4290    22606.9693    54176    7.08%
    593   218    24015.2466    28    24330.4290    22606.9693    60592    7.08%
    637   261    23862.6213    24    24330.4290    22606.9693    71411    7.08%
    992   437    23305.9788    30    24330.4290    22606.9693   115686    7.08%
Elapsed time = 8.11 sec. (5004.53 ticks, tree = 10.01 MB, solutions = 1)
   1239   610    24264.9046    26    24330.4290    23142.1970   154217    4.88%

Cover cuts applied:  0
Implied bound cuts applied:  0
Flow cuts applied:  2
Lift and project cuts applied:  2

Root node processing (before b&c):
  Real time             =    2.67 sec. (1859.31 ticks)
Parallel b&c, 8 threads:
  Real time             =    7.33 sec. (4547.76 ticks)
  Sync time (average)   =    2.39 sec.
  Wait time (average)   =    0.00 sec.
                          ------------
Total (root+branch&cut) =   10.00 sec. (6407.07 ticks)
Gap: 4.59%
Upper bound: 24330.4
Lower bound: 23212.5
End of CPLEX run. Time: 10.0038 seconds

===== New CPLEX run =====
Instance: /home/yorig/tuner/mpils-tests/instances/miplib/medium-2/supportcase40.mps
Config: /scratch/yorig/mpils-results-grid-seconds-10-no-mip-start/medium-2/2proc/seed-3/8_supportcase40_seed-3_20260503_050730/iterated_local_search/run_2_worker_1/ils_config_11994980893264314746.prm
========================

Selected objective sense:  MINIMIZE
Selected objective  name:  obj
Selected RHS        name:  rhs
Selected bound      name:  bnd
Version identifier: 22.1.2.0 | 2024-11-26 | 0edbb82fd
CPXPARAM_Threads                                 8
CPXPARAM_Parallel                                1
CPXPARAM_MIP_Cuts_Covers                         2
CPXPARAM_MIP_Cuts_FlowCovers                     2
CPXPARAM_MIP_Cuts_Implied                        1
CPXPARAM_MIP_Cuts_Gomory                         -1
CPXPARAM_MIP_Cuts_Disjunctive                    -1
CPXPARAM_Emphasis_MIP                            2
CPXPARAM_MIP_Strategy_RINSHeur                   1000
CPXPARAM_TimeLimit                               10
1 of 21 MIP starts provided solutions.
MIP start 'm1' defined initial solution with objective 24330.4290.
Tried aggregator 2 times.
MIP Presolve eliminated 29622 rows and 11272 columns.
MIP Presolve modified 700 coefficients.
Aggregator did 100 substitutions.
Reduced MIP has 8469 rows, 5068 columns, and 24192 nonzeros.
Reduced MIP has 300 binaries, 0 generals, 0 SOSs, and 0 indicators.
Presolve time = 0.01 sec. (31.66 ticks)
Probing time = 0.09 sec. (1.10 ticks)
Tried aggregator 1 time.
Detecting symmetries...
Reduced MIP has 8469 rows, 5068 columns, and 24192 nonzeros.
Reduced MIP has 300 binaries, 0 generals, 0 SOSs, and 0 indicators.
Presolve time = 0.01 sec. (12.02 ticks)
Probing time = 0.09 sec. (0.85 ticks)
Clique table members: 100.
MIP emphasis: optimality.
MIP search method: dynamic search.
Parallel mode: deterministic, using up to 8 threads.
Root relaxation solution time = 0.16 sec. (175.06 ticks)

        Nodes                                         Cuts/
   Node  Left     Objective  IInf  Best Integer    Best Bound    ItCnt     Gap

*     0+    0                        24330.4290     3301.6156            86.43%
      0     0    22536.4834    38    24330.4290    22536.4834     4631    7.37%
      0     0    22540.1468    39    24330.4290       Cuts: 3     4656    7.36%
      0     0    22540.1542    40    24330.4290   LiftProj: 1     4662    7.36%
Detecting symmetries...
      0     2    22540.1542    40    24330.4290    22540.1542     4662    7.36%
Elapsed time = 2.67 sec. (1862.60 ticks, tree = 0.02 MB, solutions = 1)
     31    14        cutoff          24330.4290    22573.5453     8538    7.22%
    102    45    24249.2206    20    24330.4290    22606.9693    17492    7.08%
    174    69    22650.9004    38    24330.4290    22606.9693    24543    7.08%
    274    95    23188.0540    30    24330.4290    22606.9693    30864    7.08%
    363   134    24072.9800    24    24330.4290    22606.9693    39459    7.08%
    435   155    24136.1909    18    24330.4290    22606.9693    45567    7.08%
    516   186        cutoff          24330.4290    22606.9693    54176    7.08%
    593   218    24015.2466    28    24330.4290    22606.9693    60592    7.08%
    637   261    23862.6213    24    24330.4290    22606.9693    71411    7.08%
    992   437    23305.9788    30    24330.4290    22606.9693   115686    7.08%
Elapsed time = 7.85 sec. (5004.53 ticks, tree = 10.01 MB, solutions = 1)
   1239   610    24264.9046    26    24330.4290    23142.1970   154217    4.88%

Cover cuts applied:  0
Implied bound cuts applied:  0
Flow cuts applied:  2
Lift and project cuts applied:  2

Root node processing (before b&c):
  Real time             =    2.54 sec. (1859.31 ticks)
Parallel b&c, 8 threads:
  Real time             =    7.46 sec. (4698.59 ticks)
  Sync time (average)   =    2.24 sec.
  Wait time (average)   =    0.00 sec.
                          ------------
Total (root+branch&cut) =   10.00 sec. (6557.90 ticks)
Gap: 4.47%
Upper bound: 24330.4
Lower bound: 23242.6
End of CPLEX run. Time: 10.0053 seconds
